
Gurobi 10.0.1 (mac64[arm]) logging started Fri Mar 29 14:30:13 2024

Set parameter LogFile to value "/Users/deniserings/Documents/zib/s-bahn-data/scripts/DeniseMA/processed/BBOS_BWIN_BTG/original/LP_based/BBOS_BWIN_BTG_subgradient_202403291428act_.log"
Gurobi Optimizer version 10.0.1 build v10.0.1rc0 (mac64[arm])

CPU model: Apple M2
Thread count: 8 physical cores, 8 logical processors, using up to 8 threads

Optimize a model with 4298 rows, 2528 columns and 16750 nonzeros
Model fingerprint: 0xa23eb967
Variable types: 1214 continuous, 1314 integer (417 binary)
Coefficient statistics:
  Matrix range     [1e+00, 4e+02]
  Objective range  [1e+00, 4e+02]
  Bounds range     [1e+00, 2e+02]
  RHS range        [1e+00, 5e+02]
Found heuristic solution: objective 358.0000000
Presolve removed 2064 rows and 978 columns
Presolve time: 0.03s
Presolved: 2234 rows, 1550 columns, 10781 nonzeros
Variable types: 563 continuous, 987 integer (987 binary)
Found heuristic solution: objective 350.0000000

Root relaxation: objective 3.460000e+02, 13 iterations, 0.00 seconds (0.00 work units)

    Nodes    |    Current Node    |     Objective Bounds      |     Work
 Expl Unexpl |  Obj  Depth IntInf | Incumbent    BestBd   Gap | It/Node Time

     0     0  346.00000    0    8  350.00000  346.00000  1.14%     -    0s
     0     0  346.00000    0    1  350.00000  346.00000  1.14%     -    0s
     0     0  346.00000    0    8  350.00000  346.00000  1.14%     -    0s
     0     0  346.00000    0    2  350.00000  346.00000  1.14%     -    0s
H    0     0                     346.0000000  346.00000  0.00%     -    0s
     0     0  346.00000    0    2  346.00000  346.00000  0.00%     -    0s

Cutting planes:
  MIR: 12

Explored 1 nodes (48 simplex iterations) in 0.10 seconds (0.07 work units)
Thread count was 8 (of 8 available processors)

Solution count 3: 346 350 358 

Optimal solution found (tolerance 1.00e-04)
Best objective 3.460000000000e+02, best bound 3.460000000000e+02, gap 0.0000%

User-callback calls 780, time in user-callback 0.00 sec

Statistics for modelBBOS_BWIN_BTG:
  Linear constraint matrix    : 4298 Constrs, 2528 Vars, 16750 NZs
  Variable types              : 1214 Continuous,
1314 Integer (417 Binary)
  Matrix coefficient range    : [ 1, 396 ]
  Objective coefficient range : [ 1, 394 ]
  Variable bound range        : [ 1, 199 ]
  RHS coefficient range       : [ 1, 549 ]

Gurobi 10.0.1 (mac64[arm]) logging started Fri Mar 29 14:30:13 2024

Set parameter LogFile to value "/Users/deniserings/Documents/zib/s-bahn-data/scripts/DeniseMA/processed/BBOS_BWIN_BTG/original/LP_based/BBOS_BWIN_BTG_subgradient_202403291428act_.log"
Gurobi Optimizer version 10.0.1 build v10.0.1rc0 (mac64[arm])

CPU model: Apple M2
Thread count: 8 physical cores, 8 logical processors, using up to 8 threads

Optimize a model with 4429 rows, 2528 columns and 17446 nonzeros
Model fingerprint: 0xc5a65f54
Variable types: 1214 continuous, 1314 integer (417 binary)
Coefficient statistics:
  Matrix range     [1e+00, 4e+02]
  Objective range  [1e+00, 1e+04]
  Bounds range     [1e+00, 2e+02]
  RHS range        [1e+00, 5e+02]

User MIP start produced solution with objective 18025.3 (0.00s)
Loaded user MIP start with objective 18025.3

Presolve removed 1879 rows and 723 columns
Presolve time: 0.26s
Presolved: 2550 rows, 1805 columns, 11993 nonzeros
Variable types: 660 continuous, 1145 integer (1145 binary)

Root relaxation: objective 6.297848e+03, 898 iterations, 0.00 seconds (0.00 work units)

    Nodes    |    Current Node    |     Objective Bounds      |     Work
 Expl Unexpl |  Obj  Depth IntInf | Incumbent    BestBd   Gap | It/Node Time

     0     0 6297.84758    0   99 18025.2735 6297.84758  65.1%     -    0s
H    0     0                    11198.138178 6297.84758  43.8%     -    0s
H    0     0                    8761.8447300 6297.84758  28.1%     -    0s
H    0     0                    7712.5954422 6297.84758  18.3%     -    0s
H    0     0                    7657.6452998 6297.84758  17.8%     -    0s
     0     0 6315.12616    0  145 7657.64530 6315.12616  17.5%     -    0s
H    0     0                    7435.3960119 6315.12616  15.1%     -    0s
     0     0 6315.34927    0  149 7435.39601 6315.34927  15.1%     -    0s
     0     0 6315.34927    0  145 7435.39601 6315.34927  15.1%     -    0s
     0     0 6315.34927    0  145 7435.39601 6315.34927  15.1%     -    0s
     0     0 6449.17818    0  132 7435.39601 6449.17818  13.3%     -    0s
     0     0 6449.17818    0  133 7435.39601 6449.17818  13.3%     -    0s
     0     0 6453.78082    0  157 7435.39601 6453.78082  13.2%     -    0s
     0     0 6457.60062    0  144 7435.39601 6457.60062  13.2%     -    0s
     0     0 6459.75639    0  130 7435.39601 6459.75639  13.1%     -    0s
     0     0 6459.86313    0  132 7435.39601 6459.86313  13.1%     -    0s
     0     0 6459.91374    0  126 7435.39601 6459.91374  13.1%     -    0s
     0     0 6460.01646    0  125 7435.39601 6460.01646  13.1%     -    0s
     0     0 6460.01733    0  130 7435.39601 6460.01733  13.1%     -    0s
H    0     0                    7340.5455846 6460.20712  12.0%     -    0s
     0     0 6460.20712    0  129 7340.54558 6460.20712  12.0%     -    0s
     0     0 6460.20712    0  138 7340.54558 6460.20712  12.0%     -    0s
H    0     0                    7250.5455846 6460.20712  10.9%     -    0s
     0     0 6460.21729    0  134 7250.54558 6460.21729  10.9%     -    0s
     0     0 6460.28170    0  132 7250.54558 6460.28170  10.9%     -    0s
     0     0 6460.28170    0  132 7250.54558 6460.28170  10.9%     -    0s
     0     0 6460.28170    0  114 7250.54558 6460.28170  10.9%     -    0s
     0     0 6460.28170    0  121 7250.54558 6460.28170  10.9%     -    0s
     0     0 6460.28170    0  119 7250.54558 6460.28170  10.9%     -    0s
     0     0 6460.28170    0   70 7250.54558 6460.28170  10.9%     -    0s
H 1260   644                    6963.4957271 6498.04701  6.68%  14.2    1s
H 3269  1350                    6628.2962968 6498.04701  1.97%  11.8    2s
H 5061  1393                    6580.1965817 6509.09687  1.08%  15.0    4s
  6106  1815 6524.76905   43   57 6580.19658 6509.09687  1.08%  16.3    5s
H13378  4591                    6570.1965817 6509.09687  0.93%  25.8    7s
 18534  7523 6512.17339   39   31 6570.19658 6512.17339  0.88%  30.2   12s
H21158  6981                    6552.2464392 6513.94788  0.58%  29.0   14s
 23149  7019 6522.50022   60  114 6552.24644 6519.15515  0.51%  28.8   15s
 40946  6623 6531.82818   61   65 6552.24644 6528.24196  0.37%  30.5   20s

Cutting planes:
  Learned: 33
  Gomory: 12
  Cover: 41
  Implied bound: 3
  MIR: 55
  StrongCG: 2
  Flow cover: 17
  RLT: 1

Explored 42429 nodes (1296408 simplex iterations) in 20.22 seconds (24.43 work units)
Thread count was 8 (of 8 available processors)

Solution count 10: 6552.25 6570.2 6580.2 ... 7712.6

Solve interrupted
Best objective 6.552246439220e+03, best bound 6.529096866514e+03, gap 0.3533%

User-callback calls 82836, time in user-callback 0.06 sec

Statistics for modelBBOS_BWIN_BTG:
  Linear constraint matrix    : 4429 Constrs, 2528 Vars, 17446 NZs
  Variable types              : 1214 Continuous,
1314 Integer (417 Binary)
  Matrix coefficient range    : [ 1, 396 ]
  Objective coefficient range : [ 1, 11260.8 ]
  Variable bound range        : [ 1, 199 ]
  RHS coefficient range       : [ 1, 549 ]

Gurobi 10.0.1 (mac64[arm]) logging started Fri Mar 29 14:30:34 2024

Set parameter LogFile to value "/Users/deniserings/Documents/zib/s-bahn-data/scripts/DeniseMA/processed/BBOS_BWIN_BTG/original/LP_based/BBOS_BWIN_BTG_subgradient_202403291428act_.log"
Gurobi Optimizer version 10.0.1 build v10.0.1rc0 (mac64[arm])

CPU model: Apple M2
Thread count: 8 physical cores, 8 logical processors, using up to 8 threads

Optimize a model with 4590 rows, 2528 columns and 18020 nonzeros
Model fingerprint: 0x9ce69c18
Variable types: 1214 continuous, 1314 integer (417 binary)
Coefficient statistics:
  Matrix range     [1e+00, 4e+02]
  Objective range  [1e+00, 1e+04]
  Bounds range     [1e+00, 2e+02]
  RHS range        [1e+00, 5e+02]

User MIP start produced solution with objective 11819 (0.00s)
Loaded user MIP start with objective 11819

Presolve removed 2649 rows and 1133 columns
Presolve time: 0.27s
Presolved: 1941 rows, 1395 columns, 8361 nonzeros
Variable types: 524 continuous, 871 integer (871 binary)

Root relaxation: objective 8.240174e+03, 800 iterations, 0.00 seconds (0.01 work units)

    Nodes    |    Current Node    |     Objective Bounds      |     Work
 Expl Unexpl |  Obj  Depth IntInf | Incumbent    BestBd   Gap | It/Node Time

     0     0 8240.17438    0  140 11819.0271 8240.17438  30.3%     -    0s
H    0     0                    11145.816241 8240.17438  26.1%     -    0s
     0     0 8677.79219    0  210 11145.8162 8677.79219  22.1%     -    0s
H    0     0                    11128.816241 8677.79219  22.0%     -    0s
     0     0 8694.23648    0  217 11128.8162 8694.23648  21.9%     -    0s
     0     0 8694.23648    0  217 11128.8162 8694.23648  21.9%     -    0s
     0     0 8694.23648    0  219 11128.8162 8694.23648  21.9%     -    0s
     0     0 9061.85968    0  247 11128.8162 9061.85968  18.6%     -    0s
     0     0 9065.60346    0  224 11128.8162 9065.60346  18.5%     -    0s
     0     0 9066.91826    0  230 11128.8162 9066.91826  18.5%     -    0s
     0     0 9066.92336    0  235 11128.8162 9066.92336  18.5%     -    0s
H    0     0                    10920.374076 9066.92336  17.0%     -    0s
     0     0 9205.64610    0  206 10920.3741 9205.64610  15.7%     -    0s
     0     0 9305.81341    0  166 10920.3741 9305.81341  14.8%     -    0s
     0     0 9306.08109    0  178 10920.3741 9306.08109  14.8%     -    0s
     0     0 9457.90937    0  139 10920.3741 9457.90937  13.4%     -    0s
H    0     0                    10858.374076 9470.17506  12.8%     -    0s
     0     0 9470.17506    0  147 10858.3741 9470.17506  12.8%     -    0s
     0     0 9470.32629    0  173 10858.3741 9470.32629  12.8%     -    0s
     0     0 9494.97998    0  209 10858.3741 9494.97998  12.6%     -    0s
     0     0 9495.11729    0  170 10858.3741 9495.11729  12.6%     -    0s
     0     0 9501.03371    0  161 10858.3741 9501.03371  12.5%     -    0s
     0     0 9504.94111    0  159 10858.3741 9504.94111  12.5%     -    0s
     0     0 9504.97608    0  165 10858.3741 9504.97608  12.5%     -    0s
     0     0 9505.01529    0  174 10858.3741 9505.01529  12.5%     -    0s
     0     0 9505.01529    0  175 10858.3741 9505.01529  12.5%     -    0s
     0     0 9505.05983    0  175 10858.3741 9505.05983  12.5%     -    0s
     0     0 9505.05983    0   88 10858.3741 9505.05983  12.5%     -    0s
H    0     0                    10853.374076 9505.05983  12.4%     -    0s
H 1084   638                    10098.326496 9519.35908  5.73%  18.0    1s
H 2538  1290                    10082.326496 9542.84622  5.35%  12.8    1s
H 4646  1744                    9960.3264965 9542.84622  4.19%  13.5    3s
H 7254  2150                    9955.3264965 9564.23589  3.93%  14.6    4s
 10048  2808 9668.86781   30   76 9955.32650 9579.62774  3.77%  16.3    5s
 33620  8724 9634.98468   32  154 9955.32650 9630.39411  3.26%  18.0   10s

Cutting planes:
  Learned: 54
  Gomory: 9
  Cover: 51
  Implied bound: 22
  Clique: 18
  MIR: 43
  Flow cover: 20
  GUB cover: 2
  Zero half: 2
  Network: 2
  RLT: 1
  Relax-and-lift: 10

Explored 61335 nodes (987294 simplex iterations) in 20.07 seconds (20.38 work units)
Thread count was 8 (of 8 available processors)

Solution count 10: 9955.33 9960.33 10082.3 ... 11819

Solve interrupted
Best objective 9.955326496458e+03, best bound 9.645403515346e+03, gap 3.1131%

User-callback calls 123919, time in user-callback 0.09 sec

Statistics for modelBBOS_BWIN_BTG:
  Linear constraint matrix    : 4590 Constrs, 2528 Vars, 18020 NZs
  Variable types              : 1214 Continuous,
1314 Integer (417 Binary)
  Matrix coefficient range    : [ 1, 396 ]
  Objective coefficient range : [ 1, 12524.8 ]
  Variable bound range        : [ 1, 199 ]
  RHS coefficient range       : [ 1, 549 ]

Gurobi 10.0.1 (mac64[arm]) logging started Fri Mar 29 14:30:54 2024

Set parameter LogFile to value "/Users/deniserings/Documents/zib/s-bahn-data/scripts/DeniseMA/processed/BBOS_BWIN_BTG/original/LP_based/BBOS_BWIN_BTG_subgradient_202403291428act_.log"
Gurobi Optimizer version 10.0.1 build v10.0.1rc0 (mac64[arm])

CPU model: Apple M2
Thread count: 8 physical cores, 8 logical processors, using up to 8 threads

Optimize a model with 4609 rows, 2528 columns and 18075 nonzeros
Model fingerprint: 0x3062f9b7
Variable types: 1214 continuous, 1314 integer (417 binary)
Coefficient statistics:
  Matrix range     [1e+00, 4e+02]
  Objective range  [1e+00, 1e+04]
  Bounds range     [1e+00, 2e+02]
  RHS range        [1e+00, 5e+02]

User MIP start produced solution with objective 8415.95 (0.00s)
Loaded user MIP start with objective 8415.95

Presolve removed 2926 rows and 1359 columns
Presolve time: 0.28s
Presolved: 1683 rows, 1169 columns, 7544 nonzeros
Variable types: 477 continuous, 692 integer (692 binary)

Root relaxation: objective 7.439789e+03, 619 iterations, 0.00 seconds (0.00 work units)

    Nodes    |    Current Node    |     Objective Bounds      |     Work
 Expl Unexpl |  Obj  Depth IntInf | Incumbent    BestBd   Gap | It/Node Time

     0     0 7439.78918    0   55 8415.94701 7439.78918  11.6%     -    0s
     0     0 7968.48130    0  113 8415.94701 7968.48130  5.32%     -    0s
     0     0 7968.87087    0  108 8415.94701 7968.87087  5.31%     -    0s
     0     0 7968.89896    0   97 8415.94701 7968.89896  5.31%     -    0s
     0     0 7970.17343    0  128 8415.94701 7970.17343  5.30%     -    0s
     0     0 7970.17343    0  113 8415.94701 7970.17343  5.30%     -    0s
     0     0 8005.17343    0  111 8415.94701 8005.17343  4.88%     -    0s
     0     0 8005.17343    0  136 8415.94701 8005.17343  4.88%     -    0s
     0     0 8005.17343    0  119 8415.94701 8005.17343  4.88%     -    0s
     0     0 8005.17343    0  104 8415.94701 8005.17343  4.88%     -    0s
     0     0 8005.90928    0   66 8415.94701 8005.90928  4.87%     -    0s
     0     0 8005.90928    0   77 8415.94701 8005.90928  4.87%     -    0s
     0     0 8005.90928    0  122 8415.94701 8005.90928  4.87%     -    0s
     0     0 8005.90928    0   96 8415.94701 8005.90928  4.87%     -    0s
H11247  3445                    8415.9470044 8096.94700  3.79%   9.6    2s
 43275 14271 8105.19952   33   27 8415.94700 8099.15427  3.76%  10.7    5s
 64581 21239 8109.61852   31   30 8415.94700 8109.61852  3.64%  11.6   10s
 108614 29492 8179.07173   52   38 8415.94700 8120.94701  3.51%  12.2   15s
 172670 40520 8174.94701   48   19 8415.94700 8154.41995  3.11%  12.5   20s

Cutting planes:
  Learned: 20
  Gomory: 3
  Cover: 27
  Implied bound: 23
  Clique: 40
  MIR: 27
  StrongCG: 4
  Flow cover: 1
  GUB cover: 3
  Network: 1
  RLT: 1
  Relax-and-lift: 7

Explored 173565 nodes (2185855 simplex iterations) in 20.09 seconds (22.30 work units)
Thread count was 8 (of 8 available processors)

Solution count 2: 8415.95 8415.95 

Solve interrupted
Warning: max bound violation (6.9863e-06) exceeds tolerance
Best objective 8.415947004352e+03, best bound 8.154947008383e+03, gap 3.1013%

User-callback calls 346465, time in user-callback 0.24 sec

Statistics for modelBBOS_BWIN_BTG:
  Linear constraint matrix    : 4609 Constrs, 2528 Vars, 18075 NZs
  Variable types              : 1214 Continuous,
1314 Integer (417 Binary)
  Matrix coefficient range    : [ 1, 396 ]
  Objective coefficient range : [ 1, 12268.2 ]
  Variable bound range        : [ 1, 199 ]
  RHS coefficient range       : [ 1, 549 ]

Gurobi 10.0.1 (mac64[arm]) logging started Fri Mar 29 14:31:14 2024

Set parameter LogFile to value "/Users/deniserings/Documents/zib/s-bahn-data/scripts/DeniseMA/processed/BBOS_BWIN_BTG/original/LP_based/BBOS_BWIN_BTG_subgradient_202403291428act_.log"
Gurobi Optimizer version 10.0.1 build v10.0.1rc0 (mac64[arm])

CPU model: Apple M2
Thread count: 8 physical cores, 8 logical processors, using up to 8 threads

Optimize a model with 4609 rows, 2528 columns and 18075 nonzeros
Model fingerprint: 0xacc82e9d
Variable types: 1214 continuous, 1314 integer (417 binary)
Coefficient statistics:
  Matrix range     [1e+00, 4e+02]
  Objective range  [1e+00, 2e+04]
  Bounds range     [1e+00, 2e+02]
  RHS range        [1e+00, 5e+02]

User MIP start did not produce a new incumbent solution

Presolve removed 2926 rows and 1359 columns
Presolve time: 0.28s
Presolved: 1683 rows, 1169 columns, 7544 nonzeros
Variable types: 477 continuous, 692 integer (692 binary)

Root relaxation: objective 8.783923e+03, 693 iterations, 0.01 seconds (0.01 work units)
Another try with MIP start

    Nodes    |    Current Node    |     Objective Bounds      |     Work
 Expl Unexpl |  Obj  Depth IntInf | Incumbent    BestBd   Gap | It/Node Time

H    0     0                    15335.707167 8783.92290  42.7%     -    0s
     0     0 8783.92290    0  116 15335.7072 8783.92290  42.7%     -    0s
     0     0 9370.74622    0  142 15335.7072 9370.74622  38.9%     -    0s
     0     0 9689.00000    0  145 15335.7072 9689.00000  36.8%     -    0s
     0     0 9689.00000    0  138 15335.7072 9689.00000  36.8%     -    0s
H    0     0                    10621.000000 9689.00000  8.78%     -    0s
     0     0 9724.00000    0  126 10621.0000 9724.00000  8.45%     -    0s
     0     0 9724.00000    0  112 10621.0000 9724.00000  8.45%     -    0s
     0     0 9729.25504    0  131 10621.0000 9729.25504  8.40%     -    0s
H    0     0                    10211.000000 9729.25504  4.72%     -    0s
     0     0 9729.25504    0   42 10211.0000 9729.25504  4.72%     -    0s
     0     0 9729.25504    0   40 10211.0000 9729.25504  4.72%     -    0s
     0     0 9752.55891    0   61 10211.0000 9752.55891  4.49%     -    0s
     0     0 9759.64345    0   78 10211.0000 9759.64345  4.42%     -    0s
     0     0 9759.97845    0   74 10211.0000 9759.97845  4.42%     -    0s
     0     0 9759.97845    0   75 10211.0000 9759.97845  4.42%     -    0s
     0     0 9798.23513    0   82 10211.0000 9798.23513  4.04%     -    0s
     0     0 9799.21977    0   70 10211.0000 9799.21977  4.03%     -    0s
     0     0 9799.29630    0   67 10211.0000 9799.29630  4.03%     -    0s
     0     0 9800.00000    0   51 10211.0000 9800.00000  4.03%     -    1s
     0     0 9801.05882    0   66 10211.0000 9801.05882  4.01%     -    1s
     0     0 9801.11111    0   69 10211.0000 9801.11111  4.01%     -    1s
     0     0 9801.58273    0   77 10211.0000 9801.58273  4.01%     -    1s
     0     0 9801.91275    0   75 10211.0000 9801.91275  4.01%     -    1s
     0     0 9801.92250    0   76 10211.0000 9801.92250  4.01%     -    1s
     0     0 9801.92250    0   72 10211.0000 9801.92250  4.01%     -    1s
     0     0 9801.92250    0   73 10211.0000 9801.92250  4.01%     -    1s
     0     0 9801.97018    0   70 10211.0000 9801.97018  4.01%     -    1s
     0     0 9802.00000    0   69 10211.0000 9802.00000  4.01%     -    1s
     0     0 9802.00000    0   75 10211.0000 9802.00000  4.01%     -    1s
     0     0 9802.00000    0   63 10211.0000 9802.00000  4.01%     -    1s
H27842  9550                    10210.000000 9889.00000  3.14%  11.0    4s
 39260 13627 10036.5293   45    5 10210.0000 9889.00000  3.14%  11.2    5s
H64671 19580                    10209.999940 9889.03683  3.14%  11.7    8s
 81752 22969 9914.68966   52   27 10209.9999 9890.00000  3.13%  11.6   10s
 105962 25837 9956.00000   57   13 10209.9999 9898.00000  3.06%  11.7   15s
 187248 34340 9918.00000   32    6 10209.9999 9918.00000  2.86%  11.5   20s

Cutting planes:
  Learned: 6
  Gomory: 3
  Cover: 10
  Implied bound: 17
  Clique: 14
  MIR: 24
  StrongCG: 1
  Flow cover: 14
  RLT: 2
  Relax-and-lift: 1

Explored 188364 nodes (2171296 simplex iterations) in 20.04 seconds (19.44 work units)
Thread count was 8 (of 8 available processors)

Solution count 5: 10210 10210 10211 ... 15335.7

Solve interrupted
Best objective 1.020999994045e+04, best bound 9.918000000000e+03, gap 2.8599%

User-callback calls 375742, time in user-callback 0.27 sec

Statistics for modelBBOS_BWIN_BTG:
  Linear constraint matrix    : 4609 Constrs, 2528 Vars, 18075 NZs
  Variable types              : 1214 Continuous,
1314 Integer (417 Binary)
  Matrix coefficient range    : [ 1, 396 ]
  Objective coefficient range : [ 1, 15090.4 ]
  Variable bound range        : [ 1, 199 ]
  RHS coefficient range       : [ 1, 549 ]
